NAME: instance_85
TYPE: TSP
DIMENSION: 20
EDGE_WEIGHT_TYPE: EUC_2D
NODE_COORD_SECTION
0 30.37 50.01
1 52.09 3.71
2 20.22 79.00
3 20.33 88.87
4 93.73 66.62
5 59.86 62.42
6 2.81 87.75
7 95.54 12.63
8 9.08 10.34
9 8.46 45.89
10 59.07 12.84
11 89.21 10.94
12 12.93 32.35
13 3.55 39.67
14 84.94 74.35
15 66.56 4.45
16 53.79 33.70
17 88.76 42.53
18 42.45 29.35
19 88.72 97.08
EOF
